251
171
268
464
215
185
371
329
405
155
186
264
409
580
296
254
206
261
261
124
286
153
273
289
258
351
178
261
183
131
132
183
142
208
191
364
124
287
466
155
203
259
144
519
210
149
457
265
320
506
355
143
468
299
295
232
155
220
278
150
448
280
298
180
180
138
290
243
434
220
640
229
296
199
188
230
194
234
236
176
469
399
254
357
202
203
241
346
193
258
188
149
162
224
182
190
186
235
204
242
